1601636
8,28,68,40,104,100,53,58,102,54,21,17,48,80,64,15,22,10,109,24,25,83,3,63,20,44,6,32,95,30,103,56,92,74,23,4,67,79,43,61,85,46,81,2,59,84,51,94,107,16,29,52,45,101,1,82,35,5,98,34,90,66,77,9,37,57,75,86,27,69,70,14,39,31,72,38,26,41,49,11,91,89,97,47,71,65,36,12,55,13,106,108,93,7,60,105,18,50,33,78,96,62,19,87,73,42,99,76,88